1
120
64
30 3
31 4
32 3
33 5
34 5
35 4
36 2
37 3
38 2
39 6
40 1
41 1
42 4
43 1
44 1
45 2
46 3
48 7
50 4
51 6
52 5
53 3
54 4
55 3
56 3
57 4
58 3
59 5
60 2
61 3
62 4
63 4
64 4
65 1
66 2
68 4
69 3
70 2
71 1
72 4
73 1
75 2
76 2
77 5
78 3
79 2
80 1
81 5
82 3
83 3
84 4
85 1
86 1
87 4
89 3
90 4
92 2
93 2
94 2
95 3
96 2
97 4
98 6
100 4
